(set-info :status unknown)
(declare-fun C2 () (_ BitVec 39))
(declare-fun %X () (_ BitVec 39))
(declare-fun C1 () (_ BitVec 39))
(assert
 (let ((?x31250 (ite (bvult %X C2) (_ bv1 1) (_ bv0 1))))
 (let ((?x25017 (ite (bvugt %X C1) (_ bv1 1) (_ bv0 1))))
 (let (($x10126 (bvult C1 C2)))
 (and $x10126 (and (distinct (bvor ?x25017 ?x31250) (_ bv1 1)) true))))))
(check-sat)
